StudentsNr = 10;
InstructorsNr = 98;
DaysNr = 1;
SlotsPerDay = 40;
AvailabilitySlotsLenght = 10;
RoomNr = 1;
ProgrammNr = 1;
DegreeNr = 1;
RolesNr = 1;
CoursesNr = 2;
InstructorsProgramm = [{1}, {1}, {1}, {1}, {1}, {1}, {1}, {1}, {1}, {1}, {1}, {1}, {1}, {1}, {1}, {1}, {1}, {1}, {1}, {1}, {1}, {1}, {1}, {1}, {1}, {1}, {1}, {1}, {1}, {1}, {1}, {1}, {1}, {1}, {1}, {1}, {1}, {1}, {1}, {1}, {1}, {1}, {1}, {1}, {1}, {1}, {1}, {1}, {1}, {1}, {1}, {1}, {1}, {1}, {1}, {1}, {1}, {1}, {1}, {1}, {1}, {1}, {1}, {1}, {1}, {1}, {1}, {1}, {1}, {1}, {1}, {1}, {1}, {1}, {1}, {1}, {1}, {1}, {1}, {1}, {1}, {1}, {1}, {1}, {1}, {1}, {1}, {1}, {1}, {1}, {1}, {1}, {1}, {1}, {1}, {1}, {1}, {1}];
InstructorRolesPerProgramm = [|{1, 3, 4, 7, 10, 11, 13, 14, 15, 16, 18, 19, 22, 25, 29, 30, 31, 32, 35, 36, 37, 38, 40, 44, 46, 48, 49, 50, 51, 52, 54, 56, 57, 58, 59, 60, 64, 66, 67, 68, 70, 71, 72, 78, 79, 80, 81, 82, 85, 94, 95}|];
InstructorsAvailability = [|0, 1, 1, 1, |0, 1, 1, 1, |0, 1, 1, 0, |1, 1, 1, 1, |1, 1, 1, 1, |1, 1, 1, 1, |1, 1, 1, 0, |0, 1, 0, 0, |1, 1, 1, 0, |1, 1, 1, 1, |1, 1, 1, 1, |1, 1, 1, 1, |1, 1, 1, 1, |0, 0, 1, 0, |1, 1, 1, 1, |1, 1, 0, 1, |0, 1, 0, 0, |1, 1, 1, 0, |1, 1, 1, 1, |0, 1, 1, 1, |0, 0, 0, 0, |1, 1, 1, 1, |0, 0, 1, 1, |0, 0, 1, 1, |1, 0, 1, 0, |0, 1, 1, 1, |0, 1, 1, 1, |1, 1, 1, 1, |0, 0, 1, 1, |0, 1, 0, 1, |0, 1, 1, 1, |0, 0, 1, 1, |1, 1, 1, 1, |0, 1, 1, 1, |1, 1, 0, 0, |0, 0, 1, 1, |1, 1, 1, 1, |0, 1, 1, 0, |1, 1, 1, 1, |0, 1, 1, 0, |0, 1, 1, 1, |0, 1, 1, 1, |0, 0, 1, 0, |0, 0, 1, 1, |0, 1, 0, 1, |0, 0, 1, 1, |1, 1, 1, 1, |1, 1, 1, 1, |1, 1, 1, 1, |0, 0, 1, 1, |1, 1, 1, 1, |1, 1, 1, 1, |0, 0, 1, 1, |0, 0, 1, 0, |0, 1, 1, 1, |1, 1, 1, 1, |1, 1, 0, 0, |0, 1, 1, 1, |1, 1, 0, 0, |1, 1, 1, 1, |0, 0, 1, 1, |0, 1, 1, 0, |1, 1, 0, 1, |1, 1, 1, 1, |0, 1, 1, 0, |1, 1, 0, 1, |1, 1, 0, 1, |1, 1, 1, 1, |0, 0, 0, 1, |1, 1, 1, 1, |1, 0, 1, 1, |1, 1, 0, 0, |0, 1, 1, 1, |0, 1, 1, 1, |1, 0, 0, 1, |1, 1, 1, 1, |0, 1, 1, 1, |0, 1, 1, 1, |0, 1, 1, 1, |1, 1, 1, 1, |1, 1, 1, 1, |1, 1, 1, 1, |0, 1, 1, 1, |1, 0, 1, 1, |1, 1, 1, 1, |0, 1, 1, 1, |1, 1, 0, 1, |0, 0, 0, 0, |0, 1, 1, 1, |0, 1, 1, 1, |1, 1, 0, 1, |0, 1, 0, 1, |0, 0, 1, 1, |0, 1, 1, 1, |0, 1, 0, 1, |0, 1, 1, 1, |0, 1, 1, 1, |1, 1, 1, 1|];
StudentsProgramm = [1, 1, 1, 1, 1, 1, 1, 1, 1, 1];
StudentsDegree = [1, 1, 1, 1, 1, 1, 1, 1, 1, 1];
StudentsSupervisorId = [41, 59, 19, 94, 89, 56, 96, 30, 46, 17];
StudentsCourseIds = [{1}, {1}, {2}, {2}, {2}, {2}, {2}, {2}, {1}, {2}];
StudentsAvailability = [|1, 1, 1, 1, |1, 1, 1, 1, |0, 1, 1, 1, |1, 1, 1, 1, |0, 0, 1, 1, |0, 0, 0, 0, |1, 1, 1, 1, |1, 1, 1, 1, |0, 1, 1, 1, |1, 1, 1, 1|];
TheoryticalMinCard = [1, 0, 0, 0, 1, 0, 1, 0, 0, 1];
CoursesInstructorIds = [{5, 6, 8, 9, 11, 12, 13, 15, 16, 17, 19, 20, 21, 22, 23, 24, 25, 27, 29, 32, 34, 36, 37, 39, 45, 46, 48, 51, 52, 53, 55, 56, 57, 59, 60, 61, 62, 63, 66, 68, 70, 71, 73, 74, 75, 76, 77, 79, 82, 83, 84, 88, 89, 90, 91, 93, 95, 96}, {1, 2, 3, 4, 10, 12, 13, 14, 15, 18, 21, 28, 30, 32, 33, 34, 36, 37, 39, 41, 43, 46, 47, 48, 49, 51, 52, 54, 57, 58, 59, 60, 65, 69, 70, 71, 72, 75, 76, 77, 78, 80, 81, 86, 88, 93, 95}];
RolesDemands = [30];
RolesContinuity = [];
ExamLen = [2, 2, 2, 2, 2, 2, 2, 2, 2, 2];
LunchTsMinLen = 0;
LunchStarts = [16..30];
SupervisorAvailable = 0;
OptimalLunchLenght = [2, 1];
OptimalStartTs = [0, 0];
OptimalFinishTs = [0, 39];
MinimizeRooms = 100;
RolesSoftContinuity = [|1|2|];
SameDegreeInRoom = 0;
Mergeability = 0;
